c # BDD stored by the DDDMP tool in CNF format
c #
c # Warning: BDD IDs missing ... evaluating them.
c # 
c # Warning: AUX IDs missing ... equal to BDD IDs.
c #
c # Warning: CNF IDs missing ... equal to BDD IDs.
c #
c .ver DDDMP-2.0
c .nnodes 6
c .nvars 13
c .nsuppvars 5
c .suppvarnames A B C D E
c .orderedvarnames A A' B B' C C' D D' E E' _jx_b0 _jx_b1 strat_type
c .ids  0 2 4 6 8
c .permids  0 2 4 6 8
c .auxids  0 2 4 6 8
c .cnfids  1 3 5 7 9
c .nroots 1
c .rootids 1         
c .nAddedCnfVar 0
c #
c # Init CNF Clauses
c #
p cnf 9 5                  
5 0
9 0
-7 0
-3 0
-1 0
c # End of Cnf From dddmp-2.0
